Route #1: 17 3 44 32 40 12
Route #2: 26 58 38 10 31 39
Route #3: 19 54 13 57 15 37 20 60 36
Route #4: 47 21 61 22 28 62
Route #5: 2 30 48 5 29 45
Route #6: 4 6 33 63 16 51
Route #7: 1 43 42 64 41 56 23 49
Route #8: 24 18 50 55 25 9
Route #9: 14 59 11 53 7
Route #10: 27 52 8 35 46 34
Cost 838